% seed = 0

mint = 36;
% maxt = 148;

nActs = 62;
dur = [0,4,1,2,3,3,1,2,6,3,2,2,1,3,2,2,2,1,3,3,4,2,2,2,2,3,1,4,4,2,2,2,3,2,4,1,1,4,2,3,1,1,1,2,3,2,5,3,3,1,3,3,4,4,1,2,2,1,4,4,2,0];

nSkills = 15;
sreq = [| 0,0,0,0,0,0,0,0,0,0,0,0,0,0,0,
	| 0,0,0,0,0,1,0,0,1,0,0,0,1,0,0,
	| 0,0,1,0,1,0,0,0,0,0,0,0,0,0,0,
	| 0,0,0,0,0,0,0,1,0,0,0,0,0,0,0,
	| 0,0,0,0,0,0,0,0,1,0,0,0,0,0,0,
	| 0,0,0,0,1,1,1,0,1,0,0,0,1,1,0,
	| 0,0,0,0,0,1,0,0,0,0,0,0,0,0,0,
	| 0,0,0,1,0,0,2,0,0,0,0,1,1,0,0,
	| 0,0,0,0,1,1,0,0,0,0,0,0,0,0,0,
	| 0,0,0,0,2,1,0,0,1,1,0,0,0,1,0,
	| 0,0,1,0,0,1,0,0,1,0,0,0,1,0,0,
	| 0,0,0,1,1,0,0,1,1,0,0,0,0,0,0,
	| 0,0,0,0,1,0,0,0,1,1,0,0,1,2,0,
	| 0,0,0,0,0,2,0,0,1,0,0,0,1,0,0,
	| 0,0,0,0,0,2,1,0,1,0,0,0,0,1,0,
	| 0,0,1,0,0,1,0,0,0,0,0,1,0,3,0,
	| 0,1,0,0,0,1,0,1,1,1,0,0,0,1,0,
	| 0,0,0,0,0,0,1,0,0,0,0,0,0,0,0,
	| 0,0,2,2,0,0,1,1,0,0,0,0,0,0,0,
	| 0,0,0,0,0,0,0,1,0,0,0,0,0,0,0,
	| 0,0,1,1,1,0,1,0,0,0,0,0,2,0,0,
	| 0,0,0,0,0,0,0,1,0,0,0,0,0,0,1,
	| 0,0,0,0,1,0,0,0,0,0,0,0,0,0,0,
	| 0,1,0,0,0,0,0,0,0,0,0,0,0,0,0,
	| 0,1,0,0,0,1,0,0,0,0,0,0,0,0,0,
	| 0,0,0,0,1,0,0,0,0,0,0,1,0,0,0,
	| 0,1,0,1,0,1,0,1,0,0,0,1,0,0,0,
	| 0,0,0,0,1,1,0,0,0,1,0,0,1,0,0,
	| 0,0,0,0,0,2,0,0,0,0,0,0,1,1,0,
	| 0,0,0,0,0,2,0,0,0,0,0,0,1,0,0,
	| 0,0,0,1,0,0,0,1,0,1,0,1,0,1,0,
	| 0,0,0,1,0,1,1,0,0,0,0,0,0,0,0,
	| 0,0,0,1,0,2,0,0,1,0,0,1,1,0,0,
	| 0,0,0,0,0,0,0,0,1,0,0,0,0,1,0,
	| 0,0,0,0,0,1,0,0,0,0,0,0,1,0,0,
	| 0,0,0,0,0,1,0,0,1,0,0,0,0,2,0,
	| 0,0,0,0,0,0,0,1,1,0,0,0,0,0,0,
	| 0,1,0,0,0,0,0,0,0,0,0,0,0,0,0,
	| 0,0,1,0,0,1,0,0,0,0,0,0,0,0,0,
	| 0,0,0,0,0,1,0,0,1,0,0,0,0,1,0,
	| 0,0,0,1,0,0,0,0,1,0,1,0,1,1,0,
	| 0,0,0,0,0,0,0,1,0,0,0,0,0,1,0,
	| 0,0,1,1,0,1,0,0,0,0,0,1,1,1,0,
	| 0,0,0,0,0,2,0,1,0,0,0,1,1,1,0,
	| 0,0,2,0,0,1,1,0,1,0,0,0,0,1,0,
	| 0,0,0,1,0,0,0,0,1,0,0,0,0,0,0,
	| 0,0,2,0,0,1,0,0,0,0,1,0,2,0,0,
	| 0,0,0,0,0,1,0,0,1,0,0,0,0,0,0,
	| 0,1,0,0,0,0,0,0,0,0,0,0,1,2,0,
	| 1,0,1,0,1,0,0,0,1,0,0,0,0,0,0,
	| 0,0,0,0,0,0,0,1,0,0,0,0,0,0,0,
	| 0,1,0,0,0,1,1,0,0,0,0,0,0,1,0,
	| 0,0,0,0,1,1,0,0,1,0,0,0,0,0,0,
	| 0,0,0,1,1,0,1,0,1,0,0,0,0,1,0,
	| 0,0,0,0,0,0,0,1,0,0,0,1,0,0,0,
	| 0,0,1,0,0,2,0,0,2,0,0,0,0,0,0,
	| 0,0,0,0,0,0,0,0,0,0,0,1,0,0,0,
	| 0,0,0,0,0,1,0,2,0,0,0,0,0,0,0,
	| 0,1,0,1,0,0,1,0,2,0,0,0,1,0,0,
	| 0,1,0,1,1,1,1,0,0,0,0,0,0,1,0,
	| 0,0,1,1,0,0,0,0,1,0,0,0,0,0,0,
	| 0,0,0,0,0,0,0,0,0,0,0,0,0,0,0, |];

% SumOfsreq = 212;

nResources = 20;
mastery = [| false,false,false,false,false,false,false,false,true,false,false,false,false,false,false,
	| false,false,false,false,false,false,false,false,true,false,false,true,false,false,false,
	| true,true,true,false,false,false,false,false,false,false,false,false,true,true,true,
	| false,false,false,false,false,false,true,true,true,false,false,true,false,false,false,
	| false,false,false,false,false,false,false,true,true,false,false,false,false,false,false,
	| false,false,false,true,true,true,false,false,false,false,false,false,false,false,false,
	| false,false,true,true,true,true,false,false,false,false,false,false,false,false,false,
	| false,false,false,false,false,false,false,false,false,true,true,true,false,false,false,
	| false,false,false,false,true,true,false,false,false,false,false,false,false,false,false,
	| false,false,false,false,false,false,false,false,false,false,false,false,true,true,true,
	| false,false,false,false,false,false,false,false,false,false,false,false,true,true,true,
	| false,false,true,false,false,false,false,false,false,false,false,false,true,true,true,
	| false,true,true,false,false,false,false,false,false,false,false,false,false,false,false,
	| false,false,false,false,false,true,false,false,false,false,false,false,false,false,false,
	| false,false,false,false,false,false,true,true,true,false,false,false,false,false,false,
	| false,false,false,true,true,true,false,false,false,false,false,false,false,false,false,
	| false,false,false,false,false,false,true,true,true,false,false,false,false,false,false,
	| false,false,false,false,false,true,false,false,false,false,false,false,false,true,true,
	| false,false,false,true,true,true,false,false,false,false,false,false,false,false,false,
	| false,false,true,false,false,false,false,false,false,false,false,false,false,false,false, |];

nPrecs = 131;
pred = [1,1,1,2,2,2,3,3,3,4,4,4,5,5,5,6,6,6,7,7,7,8,8,8,9,9,9,10,10,10,11,11,11,12,13,13,13,14,14,14,15,15,15,16,16,16,17,17,18,18,19,20,20,21,21,21,22,23,23,23,24,24,25,26,26,26,27,27,27,28,28,28,29,30,30,31,31,31,32,32,33,33,33,34,35,35,36,36,36,37,37,37,38,38,38,39,39,39,40,40,41,41,42,42,43,43,44,45,45,46,46,47,48,48,49,49,50,50,51,52,52,53,54,55,56,56,57,58,59,60,61];
succ = [2,3,4,9,5,6,51,28,13,12,7,16,10,11,15,26,40,8,27,21,59,17,13,15,25,35,31,18,29,38,17,34,35,30,33,42,14,29,21,38,41,53,24,19,29,32,30,32,20,22,49,21,23,53,54,48,30,33,26,27,44,39,38,42,36,37,34,42,40,34,43,50,55,41,46,33,36,54,37,39,45,47,48,44,37,40,52,47,39,50,52,45,43,45,48,50,46,55,41,46,51,44,49,43,52,47,49,59,61,57,51,55,57,61,58,54,59,56,56,57,53,60,56,58,60,61,58,60,62,62,62];

nUnrels = 902;
unpred = [2,2,2,2,2,2,2,3,3,3,3,3,3,3,3,3,3,3,3,3,3,3,3,3,3,3,3,3,3,3,3,3,3,3,3,3,3,3,4,4,4,4,4,4,4,4,4,4,4,4,4,4,4,4,4,4,4,4,4,4,4,5,5,5,5,5,5,5,5,5,5,5,5,6,6,6,6,6,6,6,6,6,6,6,6,6,6,6,6,6,7,7,7,7,7,7,7,7,7,7,7,7,7,7,7,7,7,7,7,7,7,7,7,7,7,7,7,7,7,7,7,8,8,8,8,8,8,8,8,8,8,8,8,8,8,8,8,8,8,8,9,9,9,9,9,9,9,9,9,9,9,9,9,9,9,9,9,9,9,9,9,9,9,10,10,10,10,10,10,10,10,10,10,10,10,10,10,11,11,11,11,11,11,11,11,11,11,11,11,11,11,11,11,11,11,11,11,11,11,11,11,11,12,12,12,12,12,12,12,12,12,12,12,12,12,12,12,12,12,12,12,12,12,12,12,12,12,12,12,12,12,12,12,12,12,12,12,12,12,13,13,13,13,13,13,13,13,13,13,13,13,13,13,13,13,13,13,13,13,13,13,13,13,13,13,13,14,14,14,14,14,14,14,14,14,14,14,14,14,14,14,14,14,14,14,14,14,14,14,14,14,14,14,14,14,14,15,15,15,15,15,15,15,15,15,15,15,15,15,15,15,15,15,15,15,15,15,15,15,15,15,15,15,15,15,16,16,16,16,16,16,16,16,16,16,16,16,16,16,16,16,16,16,16,16,16,16,16,16,16,17,17,17,17,17,17,17,17,17,17,17,17,17,17,17,17,17,17,17,17,17,17,17,18,18,18,18,18,18,18,18,18,19,19,19,19,19,19,19,19,19,19,19,19,19,19,19,19,19,19,19,19,19,19,19,19,19,19,19,19,19,19,19,19,19,19,19,19,20,20,20,20,20,20,20,20,20,20,21,21,21,21,21,21,21,21,21,21,21,21,21,21,21,21,21,21,21,21,21,21,21,21,21,21,21,21,21,21,21,21,22,22,22,22,22,22,22,22,22,22,22,22,22,22,22,22,22,22,22,22,22,22,22,22,22,22,22,23,23,23,23,23,23,23,23,23,24,24,24,24,24,24,24,24,24,24,24,24,24,24,24,24,24,24,24,24,24,24,24,25,25,25,25,25,25,25,25,25,25,25,25,25,25,25,25,25,25,25,25,25,25,25,26,26,26,26,26,26,26,26,26,26,26,26,26,26,27,27,27,27,27,27,27,27,27,27,27,27,27,27,27,28,28,28,28,28,28,28,28,28,28,28,28,28,28,28,28,28,29,29,29,29,29,29,29,29,29,29,29,29,29,29,29,29,29,29,29,29,29,29,29,29,29,29,29,29,29,30,30,30,30,30,30,30,30,30,30,30,30,30,30,30,30,30,30,30,30,31,31,31,31,31,31,31,31,31,31,31,32,32,32,32,32,32,32,32,32,32,32,32,32,32,33,33,33,33,33,33,33,33,33,33,33,33,33,33,33,33,33,33,33,34,34,34,34,34,34,34,34,34,34,34,34,34,34,34,34,34,34,34,34,35,35,35,35,35,35,35,35,36,36,36,36,36,36,36,36,36,36,36,37,37,37,37,37,37,37,37,37,37,37,37,37,37,38,38,38,38,38,38,38,38,38,38,38,39,39,39,39,39,39,39,39,39,39,39,39,40,40,40,40,40,40,40,40,40,40,41,41,41,41,41,41,41,41,41,41,41,41,42,42,42,42,42,42,42,43,43,43,43,43,43,43,43,43,43,43,44,44,44,44,44,44,44,44,44,44,44,45,45,45,45,45,45,45,45,45,45,45,45,45,45,46,46,46,46,46,46,46,46,46,47,47,47,47,47,47,47,47,47,47,47,48,48,48,48,48,48,48,48,48,49,49,49,49,49,49,49,50,50,50,50,50,50,50,51,51,51,51,51,51,51,52,52,52,52,52,53,53,53,53,53,53,53,54,54,54,54,55,55,55,55,56,56,56,57,57,58,58,59,59,60];
unsucc = [3,4,7,12,16,19,28,4,5,6,7,8,9,10,11,12,15,16,17,18,19,20,22,23,24,25,26,27,30,31,32,35,36,37,39,40,41,46,5,6,8,9,10,11,13,14,15,17,18,20,22,23,24,25,26,28,31,33,35,36,38,6,7,8,9,12,13,14,16,19,25,28,31,7,9,10,11,12,16,18,19,20,22,23,25,27,28,31,34,35,8,9,10,11,12,13,14,15,16,17,18,19,20,22,23,24,25,26,28,29,30,31,32,33,35,36,37,38,39,45,50,9,10,11,12,16,18,19,20,22,23,25,26,27,28,31,34,35,36,40,10,11,12,13,14,15,16,17,18,19,20,21,22,23,24,26,27,28,29,30,32,34,42,11,12,13,14,15,16,17,19,24,25,28,31,32,35,12,13,14,15,16,18,19,20,21,22,23,24,25,26,27,28,29,31,33,36,38,42,43,47,48,13,14,15,16,17,18,19,20,21,22,23,24,25,26,27,28,29,31,32,33,34,35,36,37,38,39,40,42,43,45,47,48,50,52,53,55,59,15,16,17,18,19,20,22,23,24,25,26,27,28,30,31,32,34,35,36,37,39,40,41,44,46,50,51,15,16,17,18,19,20,22,23,24,25,26,27,28,30,31,32,33,34,35,36,37,39,40,41,42,44,46,49,50,51,16,17,18,19,20,21,22,23,25,26,27,28,29,30,31,32,33,34,35,36,37,38,40,42,43,45,47,48,52,17,18,20,21,22,23,24,25,26,27,28,30,31,33,34,35,36,38,40,41,42,43,44,47,48,18,19,20,21,22,23,24,25,26,27,28,29,31,33,34,35,36,38,40,42,43,47,48,19,24,25,28,29,31,32,35,38,20,21,22,23,24,25,26,27,28,29,30,31,32,33,34,35,36,37,38,39,40,41,42,43,44,45,46,47,48,50,51,52,53,55,57,59,22,24,25,28,29,30,31,32,35,38,22,23,24,25,26,27,28,29,30,31,32,33,34,35,36,37,38,39,40,41,42,43,44,45,46,47,49,50,51,52,55,59,23,24,25,26,27,28,29,31,32,33,34,35,36,37,38,39,40,42,43,45,47,48,50,52,53,55,59,24,25,28,29,30,31,32,35,38,25,26,27,28,29,30,31,32,33,34,35,36,37,38,40,41,42,43,45,47,48,52,53,26,27,28,29,30,31,32,33,34,35,36,37,39,40,41,42,44,46,49,50,51,54,56,27,28,29,30,31,32,33,34,35,38,40,41,44,48,28,29,30,31,32,33,35,36,37,38,39,45,48,50,59,29,30,31,32,33,35,36,37,38,39,40,41,42,45,46,48,51,30,31,32,33,34,35,36,37,38,39,40,41,42,43,44,45,46,47,48,49,50,51,52,53,54,56,57,59,61,31,32,33,34,35,36,37,38,39,40,42,43,45,47,48,50,52,53,55,59,32,34,35,37,38,40,41,42,43,44,49,33,34,35,36,38,40,41,42,43,44,47,48,49,54,34,35,36,37,38,39,40,41,42,43,44,46,49,50,51,52,53,54,56,35,36,37,38,39,40,41,42,43,45,46,47,48,50,51,52,53,55,57,59,36,38,39,42,43,47,48,55,37,38,40,41,42,43,44,45,48,49,54,38,39,40,41,42,43,44,46,47,48,49,51,54,55,39,40,41,42,44,46,49,50,51,54,56,40,41,42,43,44,45,47,48,49,52,53,54,42,43,45,47,48,50,52,53,55,59,42,43,45,46,47,48,50,52,53,55,57,59,44,45,46,48,50,51,59,44,45,46,48,49,50,51,54,56,59,61,45,46,47,48,50,51,52,53,55,57,59,46,47,48,49,50,51,52,53,54,55,56,57,58,60,47,48,49,50,52,53,54,55,59,48,49,50,51,52,53,54,56,57,59,61,49,50,51,52,53,54,55,56,59,50,51,52,53,55,57,59,51,52,53,54,55,57,58,52,53,54,55,57,58,59,54,55,56,59,61,54,55,56,57,58,59,61,55,57,58,59,56,57,59,61,57,58,59,59,61,59,61,60,61,61];

USEFUL_RES = [{},
	{1,2,3,4,5,6,7,9,10,11,12,14,15,16,17,18,19},
	{3,6,7,9,12,13,16,19,20},
	{4,5,15,17},
	{1,2,4,5,15,17},
	{1,2,3,4,5,6,7,9,10,11,12,14,15,16,17,18,19},
	{6,7,9,14,16,18,19},
	{2,3,4,6,7,8,10,11,12,15,16,17,19},
	{6,7,9,14,16,18,19},
	{1,2,3,4,5,6,7,8,9,10,11,12,14,15,16,17,18,19},
	{1,2,3,4,5,6,7,9,10,11,12,13,14,15,16,17,18,19,20},
	{1,2,4,5,6,7,9,15,16,17,19},
	{1,2,3,4,5,6,7,8,9,10,11,12,15,16,17,18,19},
	{1,2,3,4,5,6,7,9,10,11,12,14,15,16,17,18,19},
	{1,2,3,4,5,6,7,9,10,11,12,14,15,16,17,18,19},
	{2,3,4,6,7,8,9,10,11,12,13,14,16,18,19,20},
	{1,2,3,4,5,6,7,8,9,10,11,12,13,14,15,16,17,18,19},
	{4,15,17},
	{3,4,5,6,7,12,13,15,16,17,19,20},
	{4,5,15,17},
	{3,4,6,7,9,10,11,12,13,15,16,17,19,20},
	{3,4,5,10,11,12,15,17,18},
	{6,7,9,16,19},
	{3,13},
	{3,6,7,9,13,14,16,18,19},
	{2,4,6,7,8,9,16,19},
	{2,3,4,5,6,7,8,9,13,14,15,16,17,18,19},
	{3,6,7,8,9,10,11,12,14,16,18,19},
	{3,6,7,9,10,11,12,14,16,18,19},
	{3,6,7,9,10,11,12,14,16,18,19},
	{2,3,4,5,6,7,8,10,11,12,15,16,17,18,19},
	{4,6,7,9,14,15,16,17,18,19},
	{1,2,3,4,5,6,7,8,9,10,11,12,14,15,16,17,18,19},
	{1,2,3,4,5,10,11,12,15,17,18},
	{3,6,7,9,10,11,12,14,16,18,19},
	{1,2,3,4,5,6,7,9,10,11,12,14,15,16,17,18,19},
	{1,2,4,5,15,17},
	{3,13},
	{3,6,7,9,12,13,14,16,18,19,20},
	{1,2,3,4,5,6,7,9,10,11,12,14,15,16,17,18,19},
	{1,2,3,4,5,6,7,8,10,11,12,15,16,17,18,19},
	{3,4,5,10,11,12,15,17,18},
	{2,3,4,6,7,8,9,10,11,12,13,14,16,18,19,20},
	{2,3,4,5,6,7,8,9,10,11,12,14,15,16,17,18,19},
	{1,2,3,4,5,6,7,9,10,11,12,13,14,15,16,17,18,19,20},
	{1,2,4,5,6,7,15,16,17,19},
	{3,6,7,8,9,10,11,12,13,14,16,18,19,20},
	{1,2,4,5,6,7,9,14,15,16,17,18,19},
	{3,10,11,12,13,18},
	{1,2,3,4,5,6,7,9,12,13,15,16,17,19,20},
	{4,5,15,17},
	{3,4,6,7,9,10,11,12,13,14,15,16,17,18,19},
	{1,2,4,5,6,7,9,14,15,16,17,18,19},
	{1,2,3,4,5,6,7,9,10,11,12,15,16,17,18,19},
	{2,4,5,8,15,17},
	{1,2,3,4,5,6,7,9,12,13,14,15,16,17,18,19,20},
	{2,4,8},
	{4,5,6,7,9,14,15,16,17,18,19},
	{1,2,3,4,5,6,7,10,11,12,13,15,16,17,19},
	{3,4,6,7,9,10,11,12,13,14,15,16,17,18,19},
	{1,2,3,4,5,6,7,12,13,15,16,17,19,20},
	{}];

POTENTIAL_ACT = [{2,5,6,10,11,12,13,14,15,17,33,34,36,37,40,41,45,46,48,50,53,54,56,59,61},
	{2,5,6,8,10,11,12,13,14,15,16,17,26,27,31,33,34,36,37,40,41,43,44,45,46,48,50,53,54,55,56,57,59,61},
	{2,3,6,8,10,11,13,14,15,16,17,19,21,22,24,25,27,28,29,30,31,33,34,35,36,38,39,40,41,42,43,44,45,47,49,50,52,54,56,59,60,61},
	{2,4,5,6,8,10,11,12,13,14,15,16,17,18,19,20,21,22,26,27,31,32,33,34,36,37,40,41,42,43,44,45,46,48,50,51,52,53,54,55,56,57,58,59,60,61},
	{2,4,5,6,10,11,12,13,14,15,17,19,20,22,27,31,33,34,36,37,40,41,42,44,45,46,48,50,51,53,54,55,56,58,59,61},
	{2,3,6,7,8,9,10,11,12,13,14,15,16,17,19,21,23,25,26,27,28,29,30,31,32,33,35,36,39,40,41,43,44,45,46,47,48,50,52,53,54,56,58,59,60,61},
	{2,3,6,7,8,9,10,11,12,13,14,15,16,17,19,21,23,25,26,27,28,29,30,31,32,33,35,36,39,40,41,43,44,45,46,47,48,50,52,53,54,56,58,59,60,61},
	{8,10,13,16,17,26,27,28,31,33,41,43,44,47,55,57},
	{2,3,6,7,9,10,11,12,13,14,15,16,17,21,23,25,26,27,28,29,30,32,33,35,36,39,40,43,44,45,47,48,50,52,53,54,56,58,60},
	{2,6,8,10,11,13,14,15,16,17,21,22,28,29,30,31,33,34,35,36,40,41,42,43,44,45,47,49,52,54,59,60},
	{2,6,8,10,11,13,14,15,16,17,21,22,28,29,30,31,33,34,35,36,40,41,42,43,44,45,47,49,52,54,59,60},
	{2,3,6,8,10,11,13,14,15,16,17,19,21,22,28,29,30,31,33,34,35,36,39,40,41,42,43,44,45,47,49,50,52,54,56,59,60,61},
	{3,11,16,17,19,21,24,25,27,38,39,43,45,47,49,50,52,56,59,60,61},
	{2,6,7,9,10,11,14,15,16,17,25,27,28,29,30,32,33,35,36,39,40,43,44,45,47,48,52,53,56,58,60},
	{2,4,5,6,8,10,11,12,13,14,15,17,18,19,20,21,22,27,31,32,33,34,36,37,40,41,42,44,45,46,48,50,51,52,53,54,55,56,58,59,60,61},
	{2,3,6,7,8,9,10,11,12,13,14,15,16,17,19,21,23,25,26,27,28,29,30,31,32,33,35,36,39,40,41,43,44,45,46,47,48,50,52,53,54,56,58,59,60,61},
	{2,4,5,6,8,10,11,12,13,14,15,17,18,19,20,21,22,27,31,32,33,34,36,37,40,41,42,44,45,46,48,50,51,52,53,54,55,56,58,59,60,61},
	{2,6,7,9,10,11,13,14,15,16,17,22,25,27,28,29,30,31,32,33,34,35,36,39,40,41,42,43,44,45,47,48,49,52,53,54,56,58,60},
	{2,3,6,7,8,9,10,11,12,13,14,15,16,17,19,21,23,25,26,27,28,29,30,31,32,33,35,36,39,40,41,43,44,45,46,47,48,50,52,53,54,56,58,59,60,61},
	{3,11,16,19,21,39,43,45,47,50,56,61}];
